(set-logic QF_LIA)
(declare-fun x0 () Int)
(declare-fun x1 () Int)
(declare-fun x2 () Int)
(declare-fun x3 () Int)
(declare-fun x4 () Int)
(declare-fun x5 () Int)
(declare-fun x6 () Int)
(declare-fun x7 () Int)
(declare-fun x8 () Int)
(declare-fun x9 () Int)
(declare-fun A0 () Bool)
(declare-fun A1 () Bool)
(declare-fun A2 () Bool)
(declare-fun A3 () Bool)
(declare-fun A4 () Bool)
(declare-fun A5 () Bool)
(declare-fun A6 () Bool)
(declare-fun A7 () Bool)
(declare-fun A8 () Bool)
(declare-fun A9 () Bool)
(assert (let ((.def_0 (* (- 1) x9))) (let ((.def_1 (* 1 x3))) (let ((.def_2 (+ .def_1 .def_0))) (let ((.def_3 (< .def_2 1))) (let ((.def_4 (not .def_3))) (let ((.def_5 (and A4 .def_4))) (let ((.def_6 (not A8))) (let ((.def_7 (and .def_6 A7))) (let ((.def_8 (and .def_7 .def_5))) (let ((.def_9 (* 1 x1))) (let ((.def_10 (* (- 1) x4))) (let ((.def_11 (+ .def_10 .def_9))) (let ((.def_12 (< .def_11 (- 1)))) (let ((.def_13 (and .def_12 A0))) (let ((.def_14 (not A2))) (let ((.def_15 (or .def_14 .def_6))) (let ((.def_16 (and .def_15 .def_13))) (let ((.def_17 (not .def_16))) (let ((.def_18 (or .def_17 .def_8))) (let ((.def_19 (+ .def_1 .def_10))) (let ((.def_20 (< .def_19 1))) (let ((.def_21 (not .def_20))) (let ((.def_22 (not A3))) (let ((.def_23 (or .def_22 .def_21))) (let ((.def_24 (not .def_23))) (let ((.def_25 (< .def_10 (- 1)))) (let ((.def_26 (not A1))) (let ((.def_27 (= .def_26 .def_25))) (let ((.def_28 (= .def_27 .def_24))) (let ((.def_29 (not .def_28))) (let ((.def_30 (or A2 A6))) (let ((.def_31 (< .def_10 1))) (let ((.def_32 (not .def_31))) (let ((.def_33 (or .def_32 .def_32))) (let ((.def_34 (and .def_33 .def_30))) (let ((.def_35 (not .def_34))) (let ((.def_36 (and .def_35 .def_29))) (let ((.def_37 (not .def_36))) (let ((.def_38 (and .def_37 .def_18))) (let ((.def_39 (not A7))) (let ((.def_40 (* 1 x5))) (let ((.def_41 (< .def_40 1))) (let ((.def_42 (not .def_41))) (let ((.def_43 (= .def_42 .def_39))) (let ((.def_44 (not .def_43))) (let ((.def_45 (* (- 1) x1))) (let ((.def_46 (+ .def_1 .def_45))) (let ((.def_47 (< .def_46 1))) (let ((.def_48 (* (- 1) x7))) (let ((.def_49 (+ .def_10 .def_48))) (let ((.def_50 (< .def_49 1))) (let ((.def_51 (not .def_50))) (let ((.def_52 (= .def_51 .def_47))) (let ((.def_53 (not .def_52))) (let ((.def_54 (and .def_53 .def_44))) (let ((.def_55 (not .def_54))) (let ((.def_56 (< .def_1 1))) (let ((.def_57 (not .def_56))) (let ((.def_58 (or .def_57 A6))) (let ((.def_59 (< .def_9 1))) (let ((.def_60 (not .def_59))) (let ((.def_61 (* 1 x8))) (let ((.def_62 (+ .def_61 .def_0))) (let ((.def_63 (< .def_62 (- 1)))) (let ((.def_64 (and .def_63 .def_60))) (let ((.def_65 (and .def_64 .def_58))) (let ((.def_66 (not .def_65))) (let ((.def_67 (and .def_66 .def_55))) (let ((.def_68 (not .def_67))) (let ((.def_69 (< .def_45 (- 1)))) (let ((.def_70 (* 1 x2))) (let ((.def_71 (+ .def_9 .def_70))) (let ((.def_72 (< .def_71 1))) (let ((.def_73 (not .def_72))) (let ((.def_74 (and .def_73 .def_69))) (let ((.def_75 (not A6))) (let ((.def_76 (< .def_48 (- 1)))) (let ((.def_77 (or .def_76 .def_75))) (let ((.def_78 (or .def_77 .def_74))) (let ((.def_79 (not .def_78))) (let ((.def_80 (* 1 x6))) (let ((.def_81 (+ .def_70 .def_80))) (let ((.def_82 (< .def_81 (- 1)))) (let ((.def_83 (not .def_82))) (let ((.def_84 (or .def_14 .def_83))) (let ((.def_85 (or .def_75 A6))) (let ((.def_86 (not .def_85))) (let ((.def_87 (or .def_86 .def_84))) (let ((.def_88 (not .def_87))) (let ((.def_89 (= .def_88 .def_79))) (let ((.def_90 (not .def_89))) (let ((.def_91 (and .def_90 .def_68))) (let ((.def_92 (and .def_91 .def_38))) (let ((.def_93 (not .def_92))) (let ((.def_94 (or .def_26 .def_22))) (let ((.def_95 (* 1 x9))) (let ((.def_96 (+ .def_95 .def_70))) (let ((.def_97 (< .def_96 1))) (let ((.def_98 (not .def_97))) (let ((.def_99 (or .def_75 .def_98))) (let ((.def_100 (not .def_99))) (let ((.def_101 (or .def_100 .def_94))) (let ((.def_102 (or A8 A2))) (let ((.def_103 (not .def_69))) (let ((.def_104 (or A4 .def_103))) (let ((.def_105 (and .def_104 .def_102))) (let ((.def_106 (and .def_105 .def_101))) (let ((.def_107 (not A9))) (let ((.def_108 (* (- 1) x2))) (let ((.def_109 (< .def_108 (- 1)))) (let ((.def_110 (or .def_109 .def_107))) (let ((.def_111 (not .def_110))) (let ((.def_112 (and .def_39 .def_14))) (let ((.def_113 (not .def_112))) (let ((.def_114 (and .def_113 .def_111))) (let ((.def_115 (not .def_114))) (let ((.def_116 (* (- 1) x6))) (let ((.def_117 (+ .def_116 .def_9))) (let ((.def_118 (< .def_117 1))) (let ((.def_119 (or .def_118 .def_76))) (let ((.def_120 (not .def_119))) (let ((.def_121 (* (- 1) x0))) (let ((.def_122 (< .def_121 (- 1)))) (let ((.def_123 (and .def_107 .def_122))) (let ((.def_124 (and .def_123 .def_120))) (let ((.def_125 (not .def_124))) (let ((.def_126 (or .def_125 .def_115))) (let ((.def_127 (or .def_126 .def_106))) (let ((.def_128 (not .def_127))) (let ((.def_129 (< .def_116 (- 1)))) (let ((.def_130 (< .def_0 (- 1)))) (let ((.def_131 (not .def_130))) (let ((.def_132 (and .def_131 .def_129))) (let ((.def_133 (not .def_132))) (let ((.def_134 (* (- 1) x3))) (let ((.def_135 (+ .def_121 .def_134))) (let ((.def_136 (< .def_135 (- 1)))) (let ((.def_137 (* 1 x4))) (let ((.def_138 (* 1 x7))) (let ((.def_139 (+ .def_138 .def_137))) (let ((.def_140 (< .def_139 (- 1)))) (let ((.def_141 (not .def_140))) (let ((.def_142 (and .def_141 .def_136))) (let ((.def_143 (not .def_142))) (let ((.def_144 (and .def_143 .def_133))) (let ((.def_145 (not .def_144))) (let ((.def_146 (< .def_40 (- 1)))) (let ((.def_147 (+ .def_95 .def_61))) (let ((.def_148 (< .def_147 1))) (let ((.def_149 (not .def_148))) (let ((.def_150 (or .def_149 .def_146))) (let ((.def_151 (not .def_150))) (let ((.def_152 (+ .def_0 .def_70))) (let ((.def_153 (< .def_152 (- 1)))) (let ((.def_154 (not .def_153))) (let ((.def_155 (+ .def_40 .def_1))) (let ((.def_156 (< .def_155 (- 1)))) (let ((.def_157 (= .def_156 .def_154))) (let ((.def_158 (not .def_157))) (let ((.def_159 (= .def_158 .def_151))) (let ((.def_160 (not .def_159))) (let ((.def_161 (or .def_160 .def_145))) (let ((.def_162 (not .def_161))) (let ((.def_163 (not A0))) (let ((.def_164 (< .def_1 (- 1)))) (let ((.def_165 (or .def_164 .def_163))) (let ((.def_166 (+ .def_9 .def_1))) (let ((.def_167 (< .def_166 1))) (let ((.def_168 (not .def_167))) (let ((.def_169 (= .def_168 A8))) (let ((.def_170 (or .def_169 .def_165))) (let ((.def_171 (not .def_170))) (let ((.def_172 (< .def_138 1))) (let ((.def_173 (not .def_172))) (let ((.def_174 (+ .def_10 .def_70))) (let ((.def_175 (< .def_174 1))) (let ((.def_176 (not .def_175))) (let ((.def_177 (or .def_176 .def_173))) (let ((.def_178 (* 1 x0))) (let ((.def_179 (< .def_178 (- 1)))) (let ((.def_180 (or .def_179 .def_22))) (let ((.def_181 (and .def_180 .def_177))) (let ((.def_182 (not .def_181))) (let ((.def_183 (or .def_182 .def_171))) (let ((.def_184 (not .def_183))) (let ((.def_185 (or .def_184 .def_162))) (let ((.def_186 (not .def_185))) (let ((.def_187 (or .def_186 .def_128))) (let ((.def_188 (and .def_187 .def_93))) (let ((.def_189 (not A4))) (let ((.def_190 (and .def_189 .def_173))) (let ((.def_191 (not .def_190))) (let ((.def_192 (< .def_61 (- 1)))) (let ((.def_193 (and .def_75 .def_192))) (let ((.def_194 (= .def_193 .def_191))) (let ((.def_195 (or A1 .def_75))) (let ((.def_196 (not .def_195))) (let ((.def_197 (+ .def_137 .def_45))) (let ((.def_198 (< .def_197 (- 1)))) (let ((.def_199 (and .def_198 A0))) (let ((.def_200 (or .def_199 .def_196))) (let ((.def_201 (not .def_200))) (let ((.def_202 (and .def_201 .def_194))) (let ((.def_203 (or .def_22 .def_26))) (let ((.def_204 (* (- 1) x5))) (let ((.def_205 (+ .def_204 .def_80))) (let ((.def_206 (< .def_205 (- 1)))) (let ((.def_207 (not .def_206))) (let ((.def_208 (and .def_207 .def_22))) (let ((.def_209 (or .def_208 .def_203))) (let ((.def_210 (not .def_209))) (let ((.def_211 (and .def_107 .def_26))) (let ((.def_212 (+ .def_45 .def_70))) (let ((.def_213 (< .def_212 (- 1)))) (let ((.def_214 (not .def_213))) (let ((.def_215 (= .def_214 A5))) (let ((.def_216 (not .def_215))) (let ((.def_217 (or .def_216 .def_211))) (let ((.def_218 (and .def_217 .def_210))) (let ((.def_219 (and .def_218 .def_202))) (let ((.def_220 (and .def_189 .def_39))) (let ((.def_221 (not .def_220))) (let ((.def_222 (+ .def_40 .def_80))) (let ((.def_223 (< .def_222 1))) (let ((.def_224 (or .def_223 .def_122))) (let ((.def_225 (not .def_224))) (let ((.def_226 (and .def_225 .def_221))) (let ((.def_227 (not .def_226))) (let ((.def_228 (< .def_70 (- 1)))) (let ((.def_229 (+ .def_48 .def_95))) (let ((.def_230 (< .def_229 (- 1)))) (let ((.def_231 (or .def_230 .def_228))) (let ((.def_232 (+ .def_10 .def_40))) (let ((.def_233 (< .def_232 (- 1)))) (let ((.def_234 (or .def_233 A7))) (let ((.def_235 (not .def_234))) (let ((.def_236 (and .def_235 .def_231))) (let ((.def_237 (not .def_236))) (let ((.def_238 (or .def_237 .def_227))) (let ((.def_239 (< .def_204 1))) (let ((.def_240 (not .def_239))) (let ((.def_241 (or .def_240 .def_163))) (let ((.def_242 (< .def_95 1))) (let ((.def_243 (not .def_242))) (let ((.def_244 (< .def_80 (- 1)))) (let ((.def_245 (not .def_244))) (let ((.def_246 (and .def_245 .def_243))) (let ((.def_247 (or .def_246 .def_241))) (let ((.def_248 (not .def_247))) (let ((.def_249 (+ .def_138 .def_1))) (let ((.def_250 (< .def_249 (- 1)))) (let ((.def_251 (and .def_250 .def_75))) (let ((.def_252 (or .def_130 A3))) (let ((.def_253 (not .def_252))) (let ((.def_254 (or .def_253 .def_251))) (let ((.def_255 (or .def_254 .def_248))) (let ((.def_256 (not .def_255))) (let ((.def_257 (or .def_256 .def_238))) (let ((.def_258 (and .def_257 .def_219))) (let ((.def_259 (not .def_258))) (let ((.def_260 (< .def_134 (- 1)))) (let ((.def_261 (or .def_26 .def_260))) (let ((.def_262 (not .def_261))) (let ((.def_263 (or .def_122 .def_75))) (let ((.def_264 (not .def_263))) (let ((.def_265 (or .def_264 .def_262))) (let ((.def_266 (not .def_265))) (let ((.def_267 (or .def_22 .def_75))) (let ((.def_268 (not .def_146))) (let ((.def_269 (and .def_268 .def_172))) (let ((.def_270 (not .def_269))) (let ((.def_271 (= .def_270 .def_267))) (let ((.def_272 (not .def_271))) (let ((.def_273 (= .def_272 .def_266))) (let ((.def_274 (+ .def_80 .def_108))) (let ((.def_275 (< .def_274 (- 1)))) (let ((.def_276 (not .def_275))) (let ((.def_277 (and .def_6 .def_276))) (let ((.def_278 (or A4 A9))) (let ((.def_279 (not .def_278))) (let ((.def_280 (or .def_279 .def_277))) (let ((.def_281 (+ .def_80 .def_204))) (let ((.def_282 (< .def_281 (- 1)))) (let ((.def_283 (or A4 .def_282))) (let ((.def_284 (not .def_283))) (let ((.def_285 (+ .def_70 .def_45))) (let ((.def_286 (< .def_285 (- 1)))) (let ((.def_287 (or .def_14 .def_286))) (let ((.def_288 (not .def_287))) (let ((.def_289 (= .def_288 .def_284))) (let ((.def_290 (or .def_289 .def_280))) (let ((.def_291 (not .def_290))) (let ((.def_292 (and .def_291 .def_273))) (let ((.def_293 (not .def_292))) (let ((.def_294 (* (- 1) x8))) (let ((.def_295 (+ .def_116 .def_294))) (let ((.def_296 (< .def_295 1))) (let ((.def_297 (or .def_14 .def_296))) (let ((.def_298 (not .def_297))) (let ((.def_299 (and .def_6 A8))) (let ((.def_300 (not .def_299))) (let ((.def_301 (or .def_300 .def_298))) (let ((.def_302 (and .def_107 .def_6))) (let ((.def_303 (or A9 .def_22))) (let ((.def_304 (or .def_303 .def_302))) (let ((.def_305 (not .def_304))) (let ((.def_306 (or .def_305 .def_301))) (let ((.def_307 (not .def_306))) (let ((.def_308 (< .def_137 (- 1)))) (let ((.def_309 (not .def_308))) (let ((.def_310 (= .def_309 .def_163))) (let ((.def_311 (+ .def_108 .def_134))) (let ((.def_312 (< .def_311 1))) (let ((.def_313 (or .def_308 .def_312))) (let ((.def_314 (not .def_313))) (let ((.def_315 (or .def_314 .def_310))) (let ((.def_316 (+ .def_48 .def_294))) (let ((.def_317 (< .def_316 (- 1)))) (let ((.def_318 (< .def_70 1))) (let ((.def_319 (and .def_318 .def_317))) (let ((.def_320 (< .def_138 (- 1)))) (let ((.def_321 (not .def_320))) (let ((.def_322 (< .def_95 (- 1)))) (let ((.def_323 (or .def_322 .def_321))) (let ((.def_324 (and .def_323 .def_319))) (let ((.def_325 (not .def_324))) (let ((.def_326 (or .def_325 .def_315))) (let ((.def_327 (or .def_326 .def_307))) (let ((.def_328 (and .def_327 .def_293))) (let ((.def_329 (not .def_328))) (let ((.def_330 (or .def_329 .def_259))) (let ((.def_331 (and .def_330 .def_188))) (let ((.def_332 (not .def_331))) (let ((.def_333 (+ .def_1 .def_70))) (let ((.def_334 (< .def_333 (- 1)))) (let ((.def_335 (not .def_334))) (let ((.def_336 (= .def_335 .def_14))) (let ((.def_337 (not .def_336))) (let ((.def_338 (< .def_48 1))) (let ((.def_339 (not .def_338))) (let ((.def_340 (+ .def_178 .def_70))) (let ((.def_341 (< .def_340 (- 1)))) (let ((.def_342 (not .def_341))) (let ((.def_343 (or .def_342 .def_339))) (let ((.def_344 (and .def_343 .def_337))) (let ((.def_345 (+ .def_95 .def_121))) (let ((.def_346 (< .def_345 1))) (let ((.def_347 (not .def_346))) (let ((.def_348 (or .def_75 .def_347))) (let ((.def_349 (or .def_14 .def_42))) (let ((.def_350 (or .def_349 .def_348))) (let ((.def_351 (and .def_350 .def_344))) (let ((.def_352 (not .def_351))) (let ((.def_353 (< .def_232 1))) (let ((.def_354 (and .def_107 .def_353))) (let ((.def_355 (+ .def_178 .def_108))) (let ((.def_356 (< .def_355 1))) (let ((.def_357 (or .def_356 .def_6))) (let ((.def_358 (not .def_357))) (let ((.def_359 (and .def_358 .def_354))) (let ((.def_360 (not .def_359))) (let ((.def_361 (< .def_45 1))) (let ((.def_362 (and .def_361 .def_240))) (let ((.def_363 (+ .def_178 .def_9))) (let ((.def_364 (< .def_363 (- 1)))) (let ((.def_365 (+ .def_294 .def_9))) (let ((.def_366 (< .def_365 1))) (let ((.def_367 (or .def_366 .def_364))) (let ((.def_368 (not .def_367))) (let ((.def_369 (or .def_368 .def_362))) (let ((.def_370 (not .def_369))) (let ((.def_371 (and .def_370 .def_360))) (let ((.def_372 (not .def_371))) (let ((.def_373 (= .def_372 .def_352))) (let ((.def_374 (not .def_373))) (let ((.def_375 (+ .def_61 .def_116))) (let ((.def_376 (< .def_375 1))) (let ((.def_377 (not .def_376))) (let ((.def_378 (< .def_121 1))) (let ((.def_379 (and .def_378 .def_377))) (let ((.def_380 (not .def_361))) (let ((.def_381 (or .def_380 A0))) (let ((.def_382 (not .def_381))) (let ((.def_383 (= .def_382 .def_379))) (let ((.def_384 (not .def_383))) (let ((.def_385 (+ .def_48 .def_116))) (let ((.def_386 (< .def_385 1))) (let ((.def_387 (not .def_386))) (let ((.def_388 (and A5 .def_387))) (let ((.def_389 (not .def_388))) (let ((.def_390 (+ .def_45 .def_116))) (let ((.def_391 (< .def_390 1))) (let ((.def_392 (not .def_391))) (let ((.def_393 (and .def_392 A2))) (let ((.def_394 (not .def_393))) (let ((.def_395 (or .def_394 .def_389))) (let ((.def_396 (not .def_395))) (let ((.def_397 (or .def_396 .def_384))) (let ((.def_398 (not .def_397))) (let ((.def_399 (+ .def_40 .def_178))) (let ((.def_400 (< .def_399 1))) (let ((.def_401 (and .def_400 A8))) (let ((.def_402 (< .def_0 1))) (let ((.def_403 (or .def_402 .def_6))) (let ((.def_404 (not .def_403))) (let ((.def_405 (or .def_404 .def_401))) (let ((.def_406 (or .def_39 .def_192))) (let ((.def_407 (not .def_406))) (let ((.def_408 (+ .def_1 .def_80))) (let ((.def_409 (< .def_408 1))) (let ((.def_410 (or .def_409 .def_26))) (let ((.def_411 (not .def_410))) (let ((.def_412 (or .def_411 .def_407))) (let ((.def_413 (not .def_412))) (let ((.def_414 (or .def_413 .def_405))) (let ((.def_415 (not .def_414))) (let ((.def_416 (= .def_415 .def_398))) (let ((.def_417 (and .def_416 .def_374))) (let ((.def_418 (< .def_61 1))) (let ((.def_419 (and .def_22 .def_418))) (let ((.def_420 (< .def_212 1))) (let ((.def_421 (not .def_420))) (let ((.def_422 (or .def_421 .def_109))) (let ((.def_423 (not .def_422))) (let ((.def_424 (and .def_423 .def_419))) (let ((.def_425 (+ .def_0 .def_294))) (let ((.def_426 (< .def_425 1))) (let ((.def_427 (not .def_426))) (let ((.def_428 (+ .def_95 .def_178))) (let ((.def_429 (< .def_428 1))) (let ((.def_430 (or .def_429 .def_427))) (let ((.def_431 (< .def_108 1))) (let ((.def_432 (not .def_431))) (let ((.def_433 (and .def_432 A7))) (let ((.def_434 (or .def_433 .def_430))) (let ((.def_435 (and .def_434 .def_424))) (let ((.def_436 (not .def_192))) (let ((.def_437 (and .def_163 .def_436))) (let ((.def_438 (not .def_437))) (let ((.def_439 (and A2 A0))) (let ((.def_440 (or .def_439 .def_438))) (let ((.def_441 (not .def_440))) (let ((.def_442 (+ .def_95 .def_204))) (let ((.def_443 (< .def_442 (- 1)))) (let ((.def_444 (not .def_443))) (let ((.def_445 (or .def_444 A2))) (let ((.def_446 (not .def_445))) (let ((.def_447 (+ .def_48 .def_1))) (let ((.def_448 (< .def_447 1))) (let ((.def_449 (not .def_448))) (let ((.def_450 (not .def_76))) (let ((.def_451 (and .def_450 .def_449))) (let ((.def_452 (not .def_451))) (let ((.def_453 (and .def_452 .def_446))) (let ((.def_454 (or .def_453 .def_441))) (let ((.def_455 (not .def_454))) (let ((.def_456 (or .def_455 .def_435))) (let ((.def_457 (not .def_456))) (let ((.def_458 (< .def_178 1))) (let ((.def_459 (+ .def_61 .def_95))) (let ((.def_460 (< .def_459 (- 1)))) (let ((.def_461 (not .def_460))) (let ((.def_462 (or .def_461 .def_458))) (let ((.def_463 (not .def_462))) (let ((.def_464 (+ .def_294 .def_95))) (let ((.def_465 (< .def_464 (- 1)))) (let ((.def_466 (or .def_465 .def_131))) (let ((.def_467 (and .def_466 .def_463))) (let ((.def_468 (not .def_467))) (let ((.def_469 (+ .def_10 .def_61))) (let ((.def_470 (< .def_469 1))) (let ((.def_471 (not .def_470))) (let ((.def_472 (< .def_294 1))) (let ((.def_473 (not .def_472))) (let ((.def_474 (or .def_473 .def_471))) (let ((.def_475 (< .def_116 1))) (let ((.def_476 (not .def_475))) (let ((.def_477 (or .def_107 .def_476))) (let ((.def_478 (and .def_477 .def_474))) (let ((.def_479 (or .def_478 .def_468))) (let ((.def_480 (not .def_479))) (let ((.def_481 (< .def_9 (- 1)))) (let ((.def_482 (not .def_481))) (let ((.def_483 (or .def_482 .def_32))) (let ((.def_484 (not .def_483))) (let ((.def_485 (= .def_475 .def_31))) (let ((.def_486 (and .def_485 .def_484))) (let ((.def_487 (not .def_486))) (let ((.def_488 (or .def_107 .def_39))) (let ((.def_489 (or A6 .def_39))) (let ((.def_490 (or .def_489 .def_488))) (let ((.def_491 (not .def_490))) (let ((.def_492 (and .def_491 .def_487))) (let ((.def_493 (not .def_492))) (let ((.def_494 (and .def_493 .def_480))) (let ((.def_495 (not .def_494))) (let ((.def_496 (and .def_495 .def_457))) (let ((.def_497 (and .def_496 .def_417))) (let ((.def_498 (not .def_497))) (let ((.def_499 (+ .def_80 .def_9))) (let ((.def_500 (< .def_499 (- 1)))) (let ((.def_501 (not .def_500))) (let ((.def_502 (or .def_75 .def_501))) (let ((.def_503 (or A2 A9))) (let ((.def_504 (and .def_503 .def_502))) (let ((.def_505 (not .def_504))) (let ((.def_506 (or A9 .def_192))) (let ((.def_507 (not .def_506))) (let ((.def_508 (not .def_378))) (let ((.def_509 (or .def_508 .def_6))) (let ((.def_510 (not .def_509))) (let ((.def_511 (or .def_510 .def_507))) (let ((.def_512 (and .def_511 .def_505))) (let ((.def_513 (or .def_109 .def_75))) (let ((.def_514 (+ .def_108 .def_45))) (let ((.def_515 (< .def_514 (- 1)))) (let ((.def_516 (not .def_515))) (let ((.def_517 (and .def_516 A2))) (let ((.def_518 (not .def_517))) (let ((.def_519 (and .def_518 .def_513))) (let ((.def_520 (or A4 .def_14))) (let ((.def_521 (not .def_520))) (let ((.def_522 (+ .def_204 .def_48))) (let ((.def_523 (< .def_522 1))) (let ((.def_524 (not .def_523))) (let ((.def_525 (or A5 .def_524))) (let ((.def_526 (not .def_525))) (let ((.def_527 (and .def_526 .def_521))) (let ((.def_528 (not .def_527))) (let ((.def_529 (and .def_528 .def_519))) (let ((.def_530 (not .def_529))) (let ((.def_531 (and .def_530 .def_512))) (let ((.def_532 (not .def_531))) (let ((.def_533 (+ .def_9 .def_40))) (let ((.def_534 (< .def_533 (- 1)))) (let ((.def_535 (and .def_189 .def_534))) (let ((.def_536 (and .def_122 .def_6))) (let ((.def_537 (or .def_536 .def_535))) (let ((.def_538 (+ .def_138 .def_40))) (let ((.def_539 (< .def_538 (- 1)))) (let ((.def_540 (not .def_539))) (let ((.def_541 (+ .def_121 .def_294))) (let ((.def_542 (< .def_541 1))) (let ((.def_543 (= .def_542 .def_540))) (let ((.def_544 (or .def_302 .def_543))) (let ((.def_545 (and .def_544 .def_537))) (let ((.def_546 (< .def_204 (- 1)))) (let ((.def_547 (not .def_546))) (let ((.def_548 (or A4 .def_547))) (let ((.def_549 (and .def_380 .def_22))) (let ((.def_550 (and .def_549 .def_548))) (let ((.def_551 (not .def_260))) (let ((.def_552 (and .def_551 A6))) (let ((.def_553 (+ .def_61 .def_108))) (let ((.def_554 (< .def_553 (- 1)))) (let ((.def_555 (not .def_554))) (let ((.def_556 (= .def_131 .def_555))) (let ((.def_557 (= .def_556 .def_552))) (let ((.def_558 (not .def_557))) (let ((.def_559 (and .def_558 .def_550))) (let ((.def_560 (and .def_559 .def_545))) (let ((.def_561 (or .def_560 .def_532))) (let ((.def_562 (not .def_561))) (let ((.def_563 (or .def_22 .def_189))) (let ((.def_564 (+ .def_204 .def_45))) (let ((.def_565 (< .def_564 1))) (let ((.def_566 (not .def_565))) (let ((.def_567 (and .def_566 .def_22))) (let ((.def_568 (not .def_567))) (let ((.def_569 (and .def_568 .def_563))) (let ((.def_570 (= .def_6 .def_189))) (let ((.def_571 (not .def_570))) (let ((.def_572 (or A7 A3))) (let ((.def_573 (not .def_572))) (let ((.def_574 (and .def_573 .def_571))) (let ((.def_575 (not .def_574))) (let ((.def_576 (and .def_575 .def_569))) (let ((.def_577 (not .def_576))) (let ((.def_578 (+ .def_40 .def_134))) (let ((.def_579 (< .def_578 1))) (let ((.def_580 (not .def_579))) (let ((.def_581 (or A3 .def_580))) (let ((.def_582 (or .def_458 .def_14))) (let ((.def_583 (not .def_582))) (let ((.def_584 (or .def_583 .def_581))) (let ((.def_585 (and A7 .def_41))) (let ((.def_586 (< .def_137 1))) (let ((.def_587 (or .def_586 .def_245))) (let ((.def_588 (not .def_587))) (let ((.def_589 (or .def_588 .def_585))) (let ((.def_590 (or .def_589 .def_584))) (let ((.def_591 (or .def_590 .def_577))) (let ((.def_592 (+ .def_178 .def_138))) (let ((.def_593 (< .def_592 1))) (let ((.def_594 (or .def_39 .def_593))) (let ((.def_595 (not .def_594))) (let ((.def_596 (and .def_75 .def_107))) (let ((.def_597 (not .def_596))) (let ((.def_598 (or .def_597 .def_595))) (let ((.def_599 (not .def_598))) (let ((.def_600 (+ .def_0 .def_80))) (let ((.def_601 (< .def_600 1))) (let ((.def_602 (not .def_601))) (let ((.def_603 (and .def_602 .def_6))) (let ((.def_604 (not .def_603))) (let ((.def_605 (and A8 .def_475))) (let ((.def_606 (not .def_605))) (let ((.def_607 (or .def_606 .def_604))) (let ((.def_608 (or .def_607 .def_599))) (let ((.def_609 (+ .def_178 .def_294))) (let ((.def_610 (< .def_609 1))) (let ((.def_611 (= .def_473 .def_610))) (let ((.def_612 (not .def_25))) (let ((.def_613 (+ .def_40 .def_108))) (let ((.def_614 (< .def_613 (- 1)))) (let ((.def_615 (not .def_614))) (let ((.def_616 (or .def_615 .def_612))) (let ((.def_617 (and .def_616 .def_611))) (let ((.def_618 (not .def_617))) (let ((.def_619 (< .def_80 1))) (let ((.def_620 (not .def_619))) (let ((.def_621 (or .def_163 .def_620))) (let ((.def_622 (not .def_621))) (let ((.def_623 (and .def_508 .def_75))) (let ((.def_624 (or .def_623 .def_622))) (let ((.def_625 (and .def_624 .def_618))) (let ((.def_626 (not .def_625))) (let ((.def_627 (or .def_626 .def_608))) (let ((.def_628 (not .def_627))) (let ((.def_629 (and .def_628 .def_591))) (let ((.def_630 (and .def_629 .def_562))) (let ((.def_631 (and .def_630 .def_498))) (let ((.def_632 (not .def_631))) (let ((.def_633 (and .def_632 .def_332))) (let ((.def_634 (<= x9 1))) (let ((.def_635 (<= 0 x9))) (let ((.def_636 (<= x8 1))) (let ((.def_637 (<= 0 x8))) (let ((.def_638 (<= x7 1))) (let ((.def_639 (<= 0 x7))) (let ((.def_640 (<= x6 1))) (let ((.def_641 (<= 0 x6))) (let ((.def_642 (<= x5 1))) (let ((.def_643 (<= 0 x5))) (let ((.def_644 (<= x4 1))) (let ((.def_645 (<= 0 x4))) (let ((.def_646 (<= x3 1))) (let ((.def_647 (<= 0 x3))) (let ((.def_648 (<= x2 1))) (let ((.def_649 (<= 0 x2))) (let ((.def_650 (<= x1 1))) (let ((.def_651 (<= 0 x1))) (let ((.def_652 (<= x0 1))) (let ((.def_653 (<= 0 x0))) (let ((.def_654 (and .def_653 .def_652 .def_651 .def_650 .def_649 .def_648 .def_647 .def_646 .def_645 .def_644 .def_643 .def_642 .def_641 .def_640 .def_639 .def_638 .def_637 .def_636 .def_635 .def_634 .def_633))) .def_654))))))))))))))))))))))))))))))))))))))))))))))))))))))))))))))))))))))))))))))))))))))))))))))))))))))))))))))))))))))))))))))))))))))))))))))))))))))))))))))))))))))))))))))))))))))))))))))))))))))))))))))))))))))))))))))))))))))))))))))))))))))))))))))))))))))))))))))))))))))))))))))))))))))))))))))))))))))))))))))))))))))))))))))))))))))))))))))))))))))))))))))))))))))))))))))))))))))))))))))))))))))))))))))))))))))))))))))))))))))))))))))))))))))))))))))))))))))))))))))))))))))))))))))))))))))))))))))))))))))))))))))))))))))))))))))))))))))))))))))))))))))))))))))))))))))))))))))))))))))))))))))))))))))))))))))))))))))))))))))))))))))))))))))))
(check-sat)
